
Gurobi 7.0.2 (win64, Python) logging started 06/13/17 16:51:45


Gurobi 7.0.2 (win64, Python) logging started 06/14/17 14:01:53


Gurobi 7.0.2 (win64, Python) logging started 06/14/17 14:04:42


Gurobi 7.0.2 (win64, Python) logging started 06/15/17 11:24:30


Gurobi 7.0.2 (win64, Python) logging started 06/15/17 11:30:05


Gurobi 7.0.2 (win64, Python) logging started 06/15/17 11:38:33


Gurobi 7.0.2 (win64, Python) logging started 06/15/17 12:09:02


Gurobi 7.0.2 (win64, Python) logging started 06/15/17 13:39:33


Gurobi 7.0.2 (win64, Python) logging started 06/15/17 13:58:52


Gurobi 7.0.2 (win64, Python) logging started 06/16/17 13:20:08


Gurobi 7.0.2 (win64, Python) logging started 06/16/17 17:45:46


Gurobi 7.0.2 (win64, Python) logging started 06/16/17 17:48:09


Gurobi 7.0.2 (win64, Python) logging started 06/16/17 17:55:12


Gurobi 7.0.2 (win64, Python) logging started 06/16/17 17:56:18


Gurobi 7.0.2 (win64, Python) logging started 06/16/17 17:57:10


Gurobi 7.0.2 (win64, Python) logging started 06/16/17 18:07:00


Gurobi 7.0.2 (win64, Python) logging started 06/18/17 22:04:27


Gurobi 7.0.2 (win64, Python) logging started 06/18/17 22:06:52


Gurobi 7.0.2 (win64, Python) logging started 06/19/17 09:13:18


Gurobi 7.0.2 (win64, Python) logging started 06/19/17 09:25:39


Gurobi 7.0.2 (win64, Python) logging started 06/19/17 09:27:09


Gurobi 7.0.2 (win64, Python) logging started 06/19/17 09:27:47


Gurobi 7.0.2 (win64, Python) logging started 06/19/17 09:28:13


Gurobi 7.0.2 (win64, Python) logging started 06/19/17 09:29:22


Gurobi 7.0.2 (win64, Python) logging started 06/19/17 09:29:56


Gurobi 7.0.2 (win64, Python) logging started 06/19/17 09:44:58


Gurobi 7.0.2 (win64, Python) logging started 06/19/17 09:55:54


Gurobi 7.0.2 (win64, Python) logging started 06/19/17 10:08:51


Gurobi 7.0.2 (win64, Python) logging started 06/19/17 10:10:59


Gurobi 7.0.2 (win64, Python) logging started 06/19/17 10:12:54


Gurobi 7.0.2 (win64, Python) logging started 06/19/17 10:21:45


Gurobi 7.0.2 (win64, Python) logging started 06/19/17 10:25:52


Gurobi 7.0.2 (win64, Python) logging started 06/19/17 10:26:10


Gurobi 7.0.2 (win64, Python) logging started 06/19/17 10:27:54


Gurobi 7.0.2 (win64, Python) logging started 06/19/17 10:31:10


Gurobi 7.0.2 (win64, Python) logging started 06/19/17 10:33:00


Gurobi 7.0.2 (win64, Python) logging started 06/19/17 10:35:00


Gurobi 7.0.2 (win64, Python) logging started 06/19/17 10:48:08


Gurobi 7.0.2 (win64, Python) logging started 06/19/17 10:54:24


Gurobi 7.0.2 (win64, Python) logging started 06/19/17 10:57:29


Gurobi 7.0.2 (win64, Python) logging started 06/19/17 10:58:02


Gurobi 7.0.2 (win64, Python) logging started 06/19/17 10:58:23


Gurobi 7.0.2 (win64, Python) logging started 06/19/17 10:58:52


Gurobi 7.0.2 (win64, Python) logging started 06/19/17 10:59:28


Gurobi 7.0.2 (win64, Python) logging started 06/19/17 11:00:04


Gurobi 7.0.2 (win64, Python) logging started 06/19/17 11:32:27


Gurobi 7.0.2 (win64, Python) logging started 06/19/17 11:39:35


Gurobi 7.0.2 (win64, Python) logging started 06/19/17 11:44:31


Gurobi 7.0.2 (win64, Python) logging started 06/19/17 11:48:34


Gurobi 7.0.2 (win64, Python) logging started 06/19/17 12:17:41


Gurobi 7.0.2 (win64, Python) logging started 06/19/17 16:08:30


Gurobi 7.0.2 (win64, Python) logging started 06/19/17 16:44:32


Gurobi 7.0.2 (win64, Python) logging started 06/19/17 16:44:38


Gurobi 7.0.2 (win64, Python) logging started 06/19/17 16:45:54


Gurobi 7.0.2 (win64, Python) logging started 06/19/17 16:46:00


Gurobi 7.0.2 (win64, Python) logging started 06/19/17 17:26:32


Gurobi 7.0.2 (win64, Python) logging started 06/19/17 17:26:37


Gurobi 7.0.2 (win64, Python) logging started 06/19/17 20:45:02


Gurobi 7.0.2 (win64, Python) logging started 06/19/17 20:45:07


Gurobi 7.0.2 (win64, Python) logging started 06/19/17 20:47:51


Gurobi 7.0.2 (win64, Python) logging started 06/19/17 21:24:22


Gurobi 7.0.2 (win64, Python) logging started 06/19/17 21:24:28


Gurobi 7.0.2 (win64, Python) logging started 06/19/17 21:24:41


Gurobi 7.0.2 (win64, Python) logging started 06/19/17 21:26:38


Gurobi 7.0.2 (win64, Python) logging started 06/19/17 21:28:19


Gurobi 7.0.2 (win64, Python) logging started 06/19/17 21:49:46


Gurobi 7.0.2 (win64, Python) logging started 06/19/17 21:49:56


Gurobi 7.0.2 (win64, Python) logging started 06/19/17 21:51:03


Gurobi 7.0.2 (win64, Python) logging started 06/20/17 09:30:54


Gurobi 7.0.2 (win64, Python) logging started 06/20/17 09:45:18


Gurobi 7.0.2 (win64, Python) logging started 06/20/17 10:07:10


Gurobi 7.0.2 (win64, Python) logging started 06/20/17 15:08:46


Gurobi 7.0.2 (win64, Python) logging started 06/20/17 15:20:05


Gurobi 7.0.2 (win64, Python) logging started 06/20/17 15:24:25


Gurobi 7.0.2 (win64, Python) logging started 06/20/17 15:26:25


Gurobi 7.0.2 (win64, Python) logging started 06/20/17 15:26:56


Gurobi 7.0.2 (win64, Python) logging started 06/20/17 15:27:35


Gurobi 7.0.2 (win64, Python) logging started 06/20/17 15:28:45


Gurobi 7.0.2 (win64, Python) logging started 06/20/17 15:29:35


Gurobi 7.0.2 (win64, Python) logging started 06/20/17 15:32:20


Gurobi 7.0.2 (win64, Python) logging started 06/20/17 15:33:14


Gurobi 7.0.2 (win64, Python) logging started 06/20/17 15:41:02


Gurobi 7.0.2 (win64, Python) logging started 06/20/17 15:41:37


Gurobi 7.0.2 (win64, Python) logging started 06/29/17 16:46:47


Gurobi 7.0.2 (win64, Python) logging started 06/29/17 16:48:32


Gurobi 7.0.2 (win64, Python) logging started 06/29/17 17:01:56


Gurobi 7.0.2 (win64, Python) logging started 06/30/17 13:19:38


Gurobi 7.0.2 (win64, Python) logging started 06/30/17 15:46:56


Gurobi 7.0.2 (win64, Python) logging started 07/03/17 09:22:10


Gurobi 7.0.2 (win64, Python) logging started 07/03/17 09:28:46


Gurobi 7.0.2 (win64, Python) logging started 07/03/17 09:30:18

Read LP format model from file c:\users\ethans~1\appdata\local\temp\tmppwmv4i.lp
Reading time = 0.02 seconds
: 1284 rows, 2992 columns, 13090 nonzeros
Changed value of parameter Method to 0
   Prev: -1  Min: -1  Max: 4  Default: -1
Changed value of parameter Presolve to 0
   Prev: -1  Min: -1  Max: 2  Default: -1
Read LP format model from file c:\users\ethans~1\appdata\local\temp\tmpa9rwqo.lp
Reading time = 0.01 seconds
: 1284 rows, 2992 columns, 13090 nonzeros
Changed value of parameter Method to 0
   Prev: -1  Min: -1  Max: 4  Default: -1
Changed value of parameter Presolve to 0
   Prev: -1  Min: -1  Max: 2  Default: -1
Read LP format model from file c:\users\ethans~1\appdata\local\temp\tmpxk4nk8.lp
Reading time = 0.01 seconds
: 1284 rows, 2992 columns, 13090 nonzeros
Changed value of parameter Method to 0
   Prev: -1  Min: -1  Max: 4  Default: -1
Changed value of parameter Presolve to 0
   Prev: -1  Min: -1  Max: 2  Default: -1
Read LP format model from file c:\users\ethans~1\appdata\local\temp\tmp5bbihi.lp
Reading time = 0.02 seconds
: 1284 rows, 2992 columns, 13090 nonzeros
Changed value of parameter Method to 0
   Prev: -1  Min: -1  Max: 4  Default: -1
Changed value of parameter Presolve to 0
   Prev: -1  Min: -1  Max: 2  Default: -1
Read LP format model from file c:\users\ethans~1\appdata\local\temp\tmpkfku3g.lp
Reading time = 0.01 seconds
: 1284 rows, 2992 columns, 13090 nonzeros
Changed value of parameter Method to 0
   Prev: -1  Min: -1  Max: 4  Default: -1
Changed value of parameter Presolve to 0
   Prev: -1  Min: -1  Max: 2  Default: -1
Read LP format model from file c:\users\ethans~1\appdata\local\temp\tmpifc9_i.lp
Reading time = 0.01 seconds
: 1284 rows, 2992 columns, 13090 nonzeros
Changed value of parameter Method to 0
   Prev: -1  Min: -1  Max: 4  Default: -1
Changed value of parameter Presolve to 0
   Prev: -1  Min: -1  Max: 2  Default: -1
Read LP format model from file c:\users\ethans~1\appdata\local\temp\tmptmnbmh.lp
Reading time = 0.01 seconds
: 1284 rows, 2992 columns, 13090 nonzeros
Changed value of parameter Method to 0
   Prev: -1  Min: -1  Max: 4  Default: -1
Changed value of parameter Presolve to 0
   Prev: -1  Min: -1  Max: 2  Default: -1
Read LP format model from file c:\users\ethans~1\appdata\local\temp\tmplgykyx.lp
Reading time = 0.02 seconds
: 1284 rows, 2992 columns, 13090 nonzeros
Changed value of parameter Method to 0
   Prev: -1  Min: -1  Max: 4  Default: -1
Changed value of parameter Presolve to 0
   Prev: -1  Min: -1  Max: 2  Default: -1
Read LP format model from file c:\users\ethans~1\appdata\local\temp\tmpe3bpp9.lp
Reading time = 0.01 seconds
: 1284 rows, 2992 columns, 13090 nonzeros
Changed value of parameter Method to 0
   Prev: -1  Min: -1  Max: 4  Default: -1
Changed value of parameter Presolve to 0
   Prev: -1  Min: -1  Max: 2  Default: -1
Read LP format model from file c:\users\ethans~1\appdata\local\temp\tmpjlo4xm.lp
Reading time = 0.02 seconds
: 1284 rows, 2992 columns, 13090 nonzeros
Changed value of parameter Method to 0
   Prev: -1  Min: -1  Max: 4  Default: -1
Changed value of parameter Presolve to 0
   Prev: -1  Min: -1  Max: 2  Default: -1
Read LP format model from file c:\users\ethans~1\appdata\local\temp\tmpdmwyod.lp
Reading time = 0.01 seconds
: 1284 rows, 2992 columns, 13090 nonzeros
Changed value of parameter Method to 0
   Prev: -1  Min: -1  Max: 4  Default: -1
Changed value of parameter Presolve to 0
   Prev: -1  Min: -1  Max: 2  Default: -1
Read LP format model from file c:\users\ethans~1\appdata\local\temp\tmp95p7pc.lp
Reading time = 0.01 seconds
: 1284 rows, 2992 columns, 13090 nonzeros
Changed value of parameter Method to 0
   Prev: -1  Min: -1  Max: 4  Default: -1
Changed value of parameter Presolve to 0
   Prev: -1  Min: -1  Max: 2  Default: -1
Read LP format model from file c:\users\ethans~1\appdata\local\temp\tmpuxs3yw.lp
Reading time = 0.01 seconds
: 1284 rows, 2992 columns, 13090 nonzeros
Changed value of parameter Method to 0
   Prev: -1  Min: -1  Max: 4  Default: -1
Changed value of parameter Presolve to 0
   Prev: -1  Min: -1  Max: 2  Default: -1
Read LP format model from file c:\users\ethans~1\appdata\local\temp\tmpihprku.lp
Reading time = 0.01 seconds
: 1284 rows, 2992 columns, 13090 nonzeros
Changed value of parameter Method to 0
   Prev: -1  Min: -1  Max: 4  Default: -1
Changed value of parameter Presolve to 0
   Prev: -1  Min: -1  Max: 2  Default: -1
Read LP format model from file c:\users\ethans~1\appdata\local\temp\tmpieogkb.lp
Reading time = 0.01 seconds
: 1284 rows, 2992 columns, 13090 nonzeros
Changed value of parameter Method to 0
   Prev: -1  Min: -1  Max: 4  Default: -1
Changed value of parameter Presolve to 0
   Prev: -1  Min: -1  Max: 2  Default: -1
Read LP format model from file c:\users\ethans~1\appdata\local\temp\tmpbnoxhv.lp
Reading time = 0.01 seconds
: 1284 rows, 2992 columns, 13090 nonzeros
Changed value of parameter Method to 0
   Prev: -1  Min: -1  Max: 4  Default: -1
Changed value of parameter Presolve to 0
   Prev: -1  Min: -1  Max: 2  Default: -1
Read LP format model from file c:\users\ethans~1\appdata\local\temp\tmp7blhio.lp
Reading time = 0.01 seconds
: 1284 rows, 2992 columns, 13090 nonzeros
Changed value of parameter Method to 0
   Prev: -1  Min: -1  Max: 4  Default: -1
Changed value of parameter Presolve to 0
   Prev: -1  Min: -1  Max: 2  Default: -1
Read LP format model from file c:\users\ethans~1\appdata\local\temp\tmplgi8fr.lp
Reading time = 0.01 seconds
: 1284 rows, 2992 columns, 13090 nonzeros
Changed value of parameter Method to 0
   Prev: -1  Min: -1  Max: 4  Default: -1
Changed value of parameter Presolve to 0
   Prev: -1  Min: -1  Max: 2  Default: -1
Read LP format model from file c:\users\ethans~1\appdata\local\temp\tmpg74ej3.lp
Reading time = 0.01 seconds
: 1284 rows, 2992 columns, 13090 nonzeros
Changed value of parameter Method to 0
   Prev: -1  Min: -1  Max: 4  Default: -1
Changed value of parameter Presolve to 0
   Prev: -1  Min: -1  Max: 2  Default: -1
Read LP format model from file c:\users\ethans~1\appdata\local\temp\tmphyrpxc.lp
Reading time = 0.02 seconds
: 1284 rows, 2992 columns, 13090 nonzeros
Changed value of parameter Method to 0
   Prev: -1  Min: -1  Max: 4  Default: -1
Changed value of parameter Presolve to 0
   Prev: -1  Min: -1  Max: 2  Default: -1
Read LP format model from file c:\users\ethans~1\appdata\local\temp\tmp7olgsn.lp
Reading time = 0.02 seconds
: 1284 rows, 2992 columns, 13090 nonzeros
Changed value of parameter Method to 0
   Prev: -1  Min: -1  Max: 4  Default: -1
Changed value of parameter Presolve to 0
   Prev: -1  Min: -1  Max: 2  Default: -1
Read LP format model from file c:\users\ethans~1\appdata\local\temp\tmpc6aofr.lp
Reading time = 0.01 seconds
: 1284 rows, 2992 columns, 13090 nonzeros
Changed value of parameter Method to 0
   Prev: -1  Min: -1  Max: 4  Default: -1
Changed value of parameter Presolve to 0
   Prev: -1  Min: -1  Max: 2  Default: -1
Read LP format model from file c:\users\ethans~1\appdata\local\temp\tmpvebyem.lp
Reading time = 0.01 seconds
: 1284 rows, 2992 columns, 13090 nonzeros
Changed value of parameter Method to 0
   Prev: -1  Min: -1  Max: 4  Default: -1
Changed value of parameter Presolve to 0
   Prev: -1  Min: -1  Max: 2  Default: -1
Read LP format model from file c:\users\ethans~1\appdata\local\temp\tmpmgq06i.lp
Reading time = 0.01 seconds
: 1284 rows, 2992 columns, 13090 nonzeros
Changed value of parameter Method to 0
   Prev: -1  Min: -1  Max: 4  Default: -1
Changed value of parameter Presolve to 0
   Prev: -1  Min: -1  Max: 2  Default: -1
Read LP format model from file c:\users\ethans~1\appdata\local\temp\tmp2woo6o.lp
Reading time = 0.01 seconds
: 1284 rows, 2992 columns, 13090 nonzeros
Changed value of parameter Method to 0
   Prev: -1  Min: -1  Max: 4  Default: -1
Changed value of parameter Presolve to 0
   Prev: -1  Min: -1  Max: 2  Default: -1
Read LP format model from file c:\users\ethans~1\appdata\local\temp\tmpw_tblr.lp
Reading time = 0.02 seconds
: 1284 rows, 2992 columns, 13090 nonzeros
Changed value of parameter Method to 0
   Prev: -1  Min: -1  Max: 4  Default: -1
Changed value of parameter Presolve to 0
   Prev: -1  Min: -1  Max: 2  Default: -1
Read LP format model from file c:\users\ethans~1\appdata\local\temp\tmplcu0kh.lp
Reading time = 0.01 seconds
: 1284 rows, 2992 columns, 13090 nonzeros
Changed value of parameter Method to 0
   Prev: -1  Min: -1  Max: 4  Default: -1
Changed value of parameter Presolve to 0
   Prev: -1  Min: -1  Max: 2  Default: -1
Read LP format model from file c:\users\ethans~1\appdata\local\temp\tmpsuhnbp.lp
Reading time = 0.01 seconds
: 1284 rows, 2992 columns, 13090 nonzeros
Changed value of parameter Method to 0
   Prev: -1  Min: -1  Max: 4  Default: -1
Changed value of parameter Presolve to 0
   Prev: -1  Min: -1  Max: 2  Default: -1
Read LP format model from file c:\users\ethans~1\appdata\local\temp\tmprjzaru.lp
Reading time = 0.01 seconds
: 1284 rows, 2992 columns, 13090 nonzeros
Changed value of parameter Method to 0
   Prev: -1  Min: -1  Max: 4  Default: -1
Changed value of parameter Presolve to 0
   Prev: -1  Min: -1  Max: 2  Default: -1
Read LP format model from file c:\users\ethans~1\appdata\local\temp\tmpd7i85m.lp
Reading time = 0.01 seconds
: 1284 rows, 2992 columns, 13090 nonzeros
Changed value of parameter Method to 0
   Prev: -1  Min: -1  Max: 4  Default: -1
Changed value of parameter Presolve to 0
   Prev: -1  Min: -1  Max: 2  Default: -1
Read LP format model from file c:\users\ethans~1\appdata\local\temp\tmp08hwby.lp
Reading time = 0.02 seconds
: 1284 rows, 2992 columns, 13090 nonzeros
Changed value of parameter Method to 0
   Prev: -1  Min: -1  Max: 4  Default: -1
Changed value of parameter Presolve to 0
   Prev: -1  Min: -1  Max: 2  Default: -1
Read LP format model from file c:\users\ethans~1\appdata\local\temp\tmp7w2il4.lp
Reading time = 0.01 seconds
: 1284 rows, 2992 columns, 13090 nonzeros
Changed value of parameter Method to 0
   Prev: -1  Min: -1  Max: 4  Default: -1
Changed value of parameter Presolve to 0
   Prev: -1  Min: -1  Max: 2  Default: -1
Read LP format model from file c:\users\ethans~1\appdata\local\temp\tmpskly6a.lp
Reading time = 0.01 seconds
: 1284 rows, 2992 columns, 13090 nonzeros
Changed value of parameter Method to 0
   Prev: -1  Min: -1  Max: 4  Default: -1
Changed value of parameter Presolve to 0
   Prev: -1  Min: -1  Max: 2  Default: -1
Read LP format model from file c:\users\ethans~1\appdata\local\temp\tmpgvemv4.lp
Reading time = 0.01 seconds
: 1284 rows, 2992 columns, 13090 nonzeros
Changed value of parameter Method to 0
   Prev: -1  Min: -1  Max: 4  Default: -1
Changed value of parameter Presolve to 0
   Prev: -1  Min: -1  Max: 2  Default: -1
Read LP format model from file c:\users\ethans~1\appdata\local\temp\tmpogc6j2.lp
Reading time = 0.01 seconds
: 1284 rows, 2992 columns, 13090 nonzeros
Changed value of parameter Method to 0
   Prev: -1  Min: -1  Max: 4  Default: -1
Changed value of parameter Presolve to 0
   Prev: -1  Min: -1  Max: 2  Default: -1
Read LP format model from file c:\users\ethans~1\appdata\local\temp\tmp29dd9q.lp
Reading time = 0.02 seconds
: 1284 rows, 2992 columns, 13090 nonzeros
Changed value of parameter Method to 0
   Prev: -1  Min: -1  Max: 4  Default: -1
Changed value of parameter Presolve to 0
   Prev: -1  Min: -1  Max: 2  Default: -1
Read LP format model from file c:\users\ethans~1\appdata\local\temp\tmpgjc3ct.lp
Reading time = 0.01 seconds
: 1284 rows, 2992 columns, 13090 nonzeros
Changed value of parameter Method to 0
   Prev: -1  Min: -1  Max: 4  Default: -1
Changed value of parameter Presolve to 0
   Prev: -1  Min: -1  Max: 2  Default: -1
Read LP format model from file c:\users\ethans~1\appdata\local\temp\tmp0fmkbn.lp
Reading time = 0.02 seconds
: 1284 rows, 2992 columns, 13090 nonzeros
Changed value of parameter Method to 0
   Prev: -1  Min: -1  Max: 4  Default: -1
Changed value of parameter Presolve to 0
   Prev: -1  Min: -1  Max: 2  Default: -1
Read LP format model from file c:\users\ethans~1\appdata\local\temp\tmpngykmw.lp
Reading time = 0.01 seconds
: 1284 rows, 2992 columns, 13090 nonzeros
Changed value of parameter Method to 0
   Prev: -1  Min: -1  Max: 4  Default: -1
Changed value of parameter Presolve to 0
   Prev: -1  Min: -1  Max: 2  Default: -1
Read LP format model from file c:\users\ethans~1\appdata\local\temp\tmpdxopxg.lp
Reading time = 0.01 seconds
: 1284 rows, 2992 columns, 13090 nonzeros
Changed value of parameter Method to 0
   Prev: -1  Min: -1  Max: 4  Default: -1
Changed value of parameter Presolve to 0
   Prev: -1  Min: -1  Max: 2  Default: -1
Read LP format model from file c:\users\ethans~1\appdata\local\temp\tmpv8inry.lp
Reading time = 0.02 seconds
: 1284 rows, 2992 columns, 13090 nonzeros
Changed value of parameter Method to 0
   Prev: -1  Min: -1  Max: 4  Default: -1
Changed value of parameter Presolve to 0
   Prev: -1  Min: -1  Max: 2  Default: -1
Read LP format model from file c:\users\ethans~1\appdata\local\temp\tmp_s95ec.lp
Reading time = 0.01 seconds
: 1284 rows, 2992 columns, 13090 nonzeros
Changed value of parameter Method to 0
   Prev: -1  Min: -1  Max: 4  Default: -1
Changed value of parameter Presolve to 0
   Prev: -1  Min: -1  Max: 2  Default: -1
Read LP format model from file c:\users\ethans~1\appdata\local\temp\tmprlfllx.lp
Reading time = 0.01 seconds
: 1284 rows, 2992 columns, 13090 nonzeros
Changed value of parameter Method to 0
   Prev: -1  Min: -1  Max: 4  Default: -1
Changed value of parameter Presolve to 0
   Prev: -1  Min: -1  Max: 2  Default: -1
Read LP format model from file c:\users\ethans~1\appdata\local\temp\tmpiveuil.lp
Reading time = 0.01 seconds
: 1284 rows, 2992 columns, 13090 nonzeros
Changed value of parameter Method to 0
   Prev: -1  Min: -1  Max: 4  Default: -1
Changed value of parameter Presolve to 0
   Prev: -1  Min: -1  Max: 2  Default: -1
Read LP format model from file c:\users\ethans~1\appdata\local\temp\tmpvz5pxl.lp
Reading time = 0.01 seconds
: 1284 rows, 2992 columns, 13090 nonzeros
Changed value of parameter Method to 0
   Prev: -1  Min: -1  Max: 4  Default: -1
Changed value of parameter Presolve to 0
   Prev: -1  Min: -1  Max: 2  Default: -1
